p cnf 498 1950
-14 46 -43 0
-15 -50 -34 0
-27 31 -44 0
9 2 -24 0
11 43 35 0
7 -10 1 0
28 -12 -50 0
35 37 12 0
24 4 5 0
22 -23 4 0
-46 8 5 0
45 -7 -34 0
3 -6 36 0
42 2 -19 0
-39 -19 48 0
-33 -45 -38 0
-41 -35 44 0
-16 -24 26 0
3 -32 13 0
-27 -1 24 0
5 45 -37 0
42 5 10 0
-25 -32 -37 0
-13 49 -6 0
-24 -28 46 0
41 -16 19 0
8 -33 38 0
-9 16 -2 0
4 -12 2 0
-16 -41 -6 0
30 16 -42 0
-48 -5 -42 0
-43 -8 25 0
34 -9 23 0
-28 -33 -15 0
-21 -3 -6 0
-49 40 -11 0
26 -34 24 0
-38 5 -30 0
-20 19 -46 0
47 -28 27 0
-46 45 -48 0
-8 -23 -17 0
-10 26 1 0
32 9 7 0
-24 -47 43 0
-38 9 49 0
-42 44 9 0
24 22 -5 0
9 21 -34 0
13 -30 42 0
38 44 37 0
-49 -1 -45 0
-33 38 41 0
-9 35 -5 0
22 20 13 0
-28 7 -31 0
-16 -23 28 0
15 12 -24 0
30 13 45 0
34 -23 19 0
27 20 48 0
-3 45 17 0
-16 5 34 0
-32 -48 -44 0
26 42 27 0
49 9 20 0
25 -2 23 0
26 -15 -12 0
23 30 33 0
-18 -30 -49 0
43 20 -30 0
-32 -1 -39 0
-17 -2 29 0
-40 -16 42 0
31 -23 -11 0
-33 -48 11 0
-19 1 -47 0
27 1 -36 0
-8 -11 -46 0
-1 -6 -24 0
28 -48 29 0
-23 -34 -35 0
22 -27 -17 0
20 8 48 0
41 40 -36 0
10 1 -35 0
15 -22 -20 0
-4 -41 7 0
50 28 41 0
24 -29 50 0
-38 -21 25 0
36 34 31 0
-16 49 34 0
-46 50 5 0
34 -37 -5 0
35 18 6 0
-18 27 50 0
-27 -17 -49 0
15 5 -27 0
-5 6 51 0
5 6 -51 0
-5 -6 -51 0
5 -6 51 0
7 8 52 0
-7 8 -52 0
7 -8 -52 0
-7 -8 52 0
-9 -11 53 0
9 -11 -53 0
-9 11 -53 0
9 11 53 0
-12 14 54 0
12 14 -54 0
-12 -14 -54 0
12 -14 54 0
15 -18 55 0
-15 -18 -55 0
15 18 -55 0
-15 18 55 0
-21 23 56 0
21 23 -56 0
-21 -23 -56 0
21 -23 56 0
-25 27 57 0
25 27 -57 0
-25 -27 -57 0
25 -27 57 0
30 34 58 0
-30 34 -58 0
30 -34 -58 0
-30 -34 58 0
35 40 59 0
-35 40 -59 0
35 -40 -59 0
-35 -40 59 0
-43 46 60 0
43 46 -60 0
-43 -46 -60 0
43 -46 60 0
50 -51 61 0
-50 -51 -61 0
50 51 -61 0
-50 51 61 0
52 -53 62 0
-52 -53 -62 0
52 53 -62 0
-52 53 62 0
54 -55 63 0
-54 -55 -63 0
54 55 -63 0
-54 55 63 0
56 -57 64 0
-56 -57 -64 0
56 57 -64 0
-56 57 64 0
58 -59 65 0
-58 -59 -65 0
58 59 -65 0
-58 59 65 0
60 -61 66 0
-60 -61 -66 0
60 61 -66 0
-60 61 66 0
62 -63 67 0
-62 -63 -67 0
62 63 -67 0
-62 63 67 0
64 -65 68 0
-64 -65 -68 0
64 65 -68 0
-64 65 68 0
-66 -67 68 0
66 -67 -68 0
-66 67 -68 0
66 67 68 0
1 -4 69 0
-1 -4 -69 0
1 4 -69 0
-1 4 69 0
6 9 70 0
-6 9 -70 0
6 -9 -70 0
-6 -9 70 0
-14 -15 71 0
14 -15 -71 0
-14 15 -71 0
14 15 71 0
16 -17 72 0
-16 -17 -72 0
16 17 -72 0
-16 17 72 0
-18 -19 73 0
18 -19 -73 0
-18 19 -73 0
18 19 73 0
-20 -21 74 0
20 -21 -74 0
-20 21 -74 0
20 21 74 0
22 23 75 0
-22 23 -75 0
22 -23 -75 0
-22 -23 75 0
-27 -30 76 0
27 -30 -76 0
-27 30 -76 0
27 30 76 0
31 -33 77 0
-31 -33 -77 0
31 33 -77 0
-31 33 77 0
-39 -44 78 0
39 -44 -78 0
-39 44 -78 0
39 44 78 0
-48 49 79 0
48 49 -79 0
-48 -49 -79 0
48 -49 79 0
69 -70 80 0
-69 -70 -80 0
69 70 -80 0
-69 70 80 0
71 -72 81 0
-71 -72 -81 0
71 72 -81 0
-71 72 81 0
73 -74 82 0
-73 -74 -82 0
73 74 -82 0
-73 74 82 0
75 -76 83 0
-75 -76 -83 0
75 76 -83 0
-75 76 83 0
77 -78 84 0
-77 -78 -84 0
77 78 -84 0
-77 78 84 0
79 -80 85 0
-79 -80 -85 0
79 80 -85 0
-79 80 85 0
81 -82 86 0
-81 -82 -86 0
81 82 -86 0
-81 82 86 0
83 -84 87 0
-83 -84 -87 0
83 84 -87 0
-83 84 87 0
-85 -86 87 0
85 -86 -87 0
-85 86 -87 0
85 86 87 0
1 -2 88 0
-1 -2 -88 0
1 2 -88 0
-1 2 88 0
3 -4 89 0
-3 -4 -89 0
3 4 -89 0
-3 4 89 0
5 -6 90 0
-5 -6 -90 0
5 6 -90 0
-5 6 90 0
-7 8 91 0
7 8 -91 0
-7 -8 -91 0
7 -8 91 0
-10 14 92 0
10 14 -92 0
-10 -14 -92 0
10 -14 92 0
21 22 93 0
-21 22 -93 0
21 -22 -93 0
-21 -22 93 0
23 24 94 0
-23 24 -94 0
23 -24 -94 0
-23 -24 94 0
25 -26 95 0
-25 -26 -95 0
25 26 -95 0
-25 26 95 0
-28 -29 96 0
28 -29 -96 0
-28 29 -96 0
28 29 96 0
31 -35 97 0
-31 -35 -97 0
31 35 -97 0
-31 35 97 0
-36 39 98 0
36 39 -98 0
-36 -39 -98 0
36 -39 98 0
-41 -42 99 0
41 -42 -99 0
-41 42 -99 0
41 42 99 0
-47 50 100 0
47 50 -100 0
-47 -50 -100 0
47 -50 100 0
88 -89 101 0
-88 -89 -101 0
88 89 -101 0
-88 89 101 0
90 -91 102 0
-90 -91 -102 0
90 91 -102 0
-90 91 102 0
92 -93 103 0
-92 -93 -103 0
92 93 -103 0
-92 93 103 0
94 -95 104 0
-94 -95 -104 0
94 95 -104 0
-94 95 104 0
96 -97 105 0
-96 -97 -105 0
96 97 -105 0
-96 97 105 0
98 -99 106 0
-98 -99 -106 0
98 99 -106 0
-98 99 106 0
100 -101 107 0
-100 -101 -107 0
100 101 -107 0
-100 101 107 0
102 -103 108 0
-102 -103 -108 0
102 103 -108 0
-102 103 108 0
104 -105 109 0
-104 -105 -109 0
104 105 -109 0
-104 105 109 0
106 -107 110 0
-106 -107 -110 0
106 107 -110 0
-106 107 110 0
108 -109 111 0
-108 -109 -111 0
108 109 -111 0
-108 109 111 0
110 111 0
-110 -111 0
3 4 112 0
-3 4 -112 0
3 -4 -112 0
-3 -4 112 0
5 -8 113 0
-5 -8 -113 0
5 8 -113 0
-5 8 113 0
9 -12 114 0
-9 -12 -114 0
9 12 -114 0
-9 12 114 0
16 17 115 0
-16 17 -115 0
16 -17 -115 0
-16 -17 115 0
18 -19 116 0
-18 -19 -116 0
18 19 -116 0
-18 19 116 0
21 22 117 0
-21 22 -117 0
21 -22 -117 0
-21 -22 117 0
25 -26 118 0
-25 -26 -118 0
25 26 -118 0
-25 26 118 0
-27 29 119 0
27 29 -119 0
-27 -29 -119 0
27 -29 119 0
31 -32 120 0
-31 -32 -120 0
31 32 -120 0
-31 32 120 0
-35 38 121 0
35 38 -121 0
-35 -38 -121 0
35 -38 121 0
39 41 122 0
-39 41 -122 0
39 -41 -122 0
-39 -41 122 0
42 45 123 0
-42 45 -123 0
42 -45 -123 0
-42 -45 123 0
112 -113 124 0
-112 -113 -124 0
112 113 -124 0
-112 113 124 0
114 -115 125 0
-114 -115 -125 0
114 115 -125 0
-114 115 125 0
116 -117 126 0
-116 -117 -126 0
116 117 -126 0
-116 117 126 0
118 -119 127 0
-118 -119 -127 0
118 119 -127 0
-118 119 127 0
120 -121 128 0
-120 -121 -128 0
120 121 -128 0
-120 121 128 0
122 -123 129 0
-122 -123 -129 0
122 123 -129 0
-122 123 129 0
124 -125 130 0
-124 -125 -130 0
124 125 -130 0
-124 125 130 0
126 -127 131 0
-126 -127 -131 0
126 127 -131 0
-126 127 131 0
128 -129 132 0
-128 -129 -132 0
128 129 -132 0
-128 129 132 0
-130 -131 132 0
130 -131 -132 0
-130 131 -132 0
130 131 132 0
1 4 133 0
-1 4 -133 0
1 -4 -133 0
-1 -4 133 0
-6 13 134 0
6 13 -134 0
-6 -13 -134 0
6 -13 134 0
-14 -15 135 0
14 -15 -135 0
-14 15 -135 0
14 15 135 0
16 -17 136 0
-16 -17 -136 0
16 17 -136 0
-16 17 136 0
-20 -22 137 0
20 -22 -137 0
-20 22 -137 0
20 22 137 0
23 -24 138 0
-23 -24 -138 0
23 24 -138 0
-23 24 138 0
-26 -29 139 0
26 -29 -139 0
-26 29 -139 0
26 29 139 0
-31 33 140 0
31 33 -140 0
-31 -33 -140 0
31 -33 140 0
37 -39 141 0
-37 -39 -141 0
37 39 -141 0
-37 39 141 0
40 -42 142 0
-40 -42 -142 0
40 42 -142 0
-40 42 142 0
-44 46 143 0
44 46 -143 0
-44 -46 -143 0
44 -46 143 0
47 -49 144 0
-47 -49 -144 0
47 49 -144 0
-47 49 144 0
133 -134 145 0
-133 -134 -145 0
133 134 -145 0
-133 134 145 0
135 -136 146 0
-135 -136 -146 0
135 136 -146 0
-135 136 146 0
137 -138 147 0
-137 -138 -147 0
137 138 -147 0
-137 138 147 0
139 -140 148 0
-139 -140 -148 0
139 140 -148 0
-139 140 148 0
141 -142 149 0
-141 -142 -149 0
141 142 -149 0
-141 142 149 0
143 -144 150 0
-143 -144 -150 0
143 144 -150 0
-143 144 150 0
145 -146 151 0
-145 -146 -151 0
145 146 -151 0
-145 146 151 0
147 -148 152 0
-147 -148 -152 0
147 148 -152 0
-147 148 152 0
149 -150 153 0
-149 -150 -153 0
149 150 -153 0
-149 150 153 0
-151 -152 153 0
151 -152 -153 0
-151 152 -153 0
151 152 153 0
-1 -3 154 0
1 -3 -154 0
-1 3 -154 0
1 3 154 0
7 9 155 0
-7 9 -155 0
7 -9 -155 0
-7 -9 155 0
10 -13 156 0
-10 -13 -156 0
10 13 -156 0
-10 13 156 0
14 -18 157 0
-14 -18 -157 0
14 18 -157 0
-14 18 157 0
-20 -21 158 0
20 -21 -158 0
-20 21 -158 0
20 21 158 0
-22 25 159 0
22 25 -159 0
-22 -25 -159 0
22 -25 159 0
27 -30 160 0
-27 -30 -160 0
27 30 -160 0
-27 30 160 0
31 -33 161 0
-31 -33 -161 0
31 33 -161 0
-31 33 161 0
35 36 162 0
-35 36 -162 0
35 -36 -162 0
-35 -36 162 0
37 -38 163 0
-37 -38 -163 0
37 38 -163 0
-37 38 163 0
39 40 164 0
-39 40 -164 0
39 -40 -164 0
-39 -40 164 0
41 -42 165 0
-41 -42 -165 0
41 42 -165 0
-41 42 165 0
-45 46 166 0
45 46 -166 0
-45 -46 -166 0
45 -46 166 0
47 48 167 0
-47 48 -167 0
47 -48 -167 0
-47 -48 167 0
-49 50 168 0
49 50 -168 0
-49 -50 -168 0
49 -50 168 0
154 -155 169 0
-154 -155 -169 0
154 155 -169 0
-154 155 169 0
156 -157 170 0
-156 -157 -170 0
156 157 -170 0
-156 157 170 0
158 -159 171 0
-158 -159 -171 0
158 159 -171 0
-158 159 171 0
160 -161 172 0
-160 -161 -172 0
160 161 -172 0
-160 161 172 0
162 -163 173 0
-162 -163 -173 0
162 163 -173 0
-162 163 173 0
164 -165 174 0
-164 -165 -174 0
164 165 -174 0
-164 165 174 0
166 -167 175 0
-166 -167 -175 0
166 167 -175 0
-166 167 175 0
168 -169 176 0
-168 -169 -176 0
168 169 -176 0
-168 169 176 0
170 -171 177 0
-170 -171 -177 0
170 171 -177 0
-170 171 177 0
172 -173 178 0
-172 -173 -178 0
172 173 -178 0
-172 173 178 0
174 -175 179 0
-174 -175 -179 0
174 175 -179 0
-174 175 179 0
176 -177 180 0
-176 -177 -180 0
176 177 -180 0
-176 177 180 0
178 -179 181 0
-178 -179 -181 0
178 179 -181 0
-178 179 181 0
180 181 0
-180 -181 0
1 4 182 0
-1 4 -182 0
1 -4 -182 0
-1 -4 182 0
5 7 183 0
-5 7 -183 0
5 -7 -183 0
-5 -7 183 0
-8 -10 184 0
8 -10 -184 0
-8 10 -184 0
8 10 184 0
-11 12 185 0
11 12 -185 0
-11 -12 -185 0
11 -12 185 0
-13 15 186 0
13 15 -186 0
-13 -15 -186 0
13 -15 186 0
-16 -19 187 0
16 -19 -187 0
-16 19 -187 0
16 19 187 0
-20 21 188 0
20 21 -188 0
-20 -21 -188 0
20 -21 188 0
28 -29 189 0
-28 -29 -189 0
28 29 -189 0
-28 29 189 0
-31 -32 190 0
31 -32 -190 0
-31 32 -190 0
31 32 190 0
33 34 191 0
-33 34 -191 0
33 -34 -191 0
-33 -34 191 0
37 -38 192 0
-37 -38 -192 0
37 38 -192 0
-37 38 192 0
40 -41 193 0
-40 -41 -193 0
40 41 -193 0
-40 41 193 0
42 -45 194 0
-42 -45 -194 0
42 45 -194 0
-42 45 194 0
46 50 195 0
-46 50 -195 0
46 -50 -195 0
-46 -50 195 0
182 -183 196 0
-182 -183 -196 0
182 183 -196 0
-182 183 196 0
184 -185 197 0
-184 -185 -197 0
184 185 -197 0
-184 185 197 0
186 -187 198 0
-186 -187 -198 0
186 187 -198 0
-186 187 198 0
188 -189 199 0
-188 -189 -199 0
188 189 -199 0
-188 189 199 0
190 -191 200 0
-190 -191 -200 0
190 191 -200 0
-190 191 200 0
192 -193 201 0
-192 -193 -201 0
192 193 -201 0
-192 193 201 0
194 -195 202 0
-194 -195 -202 0
194 195 -202 0
-194 195 202 0
196 -197 203 0
-196 -197 -203 0
196 197 -203 0
-196 197 203 0
198 -199 204 0
-198 -199 -204 0
198 199 -204 0
-198 199 204 0
200 -201 205 0
-200 -201 -205 0
200 201 -205 0
-200 201 205 0
202 -203 206 0
-202 -203 -206 0
202 203 -206 0
-202 203 206 0
204 -205 207 0
-204 -205 -207 0
204 205 -207 0
-204 205 207 0
206 207 0
-206 -207 0
3 4 208 0
-3 4 -208 0
3 -4 -208 0
-3 -4 208 0
5 7 209 0
-5 7 -209 0
5 -7 -209 0
-5 -7 209 0
8 9 210 0
-8 9 -210 0
8 -9 -210 0
-8 -9 210 0
-10 -11 211 0
10 -11 -211 0
-10 11 -211 0
10 11 211 0
-12 -15 212 0
12 -15 -212 0
-12 15 -212 0
12 15 212 0
-20 26 213 0
20 26 -213 0
-20 -26 -213 0
20 -26 213 0
-27 -28 214 0
27 -28 -214 0
-27 28 -214 0
27 28 214 0
-29 30 215 0
29 30 -215 0
-29 -30 -215 0
29 -30 215 0
33 -36 216 0
-33 -36 -216 0
33 36 -216 0
-33 36 216 0
40 41 217 0
-40 41 -217 0
40 -41 -217 0
-40 -41 217 0
-42 -48 218 0
42 -48 -218 0
-42 48 -218 0
42 48 218 0
208 -209 219 0
-208 -209 -219 0
208 209 -219 0
-208 209 219 0
210 -211 220 0
-210 -211 -220 0
210 211 -220 0
-210 211 220 0
212 -213 221 0
-212 -213 -221 0
212 213 -221 0
-212 213 221 0
214 -215 222 0
-214 -215 -222 0
214 215 -222 0
-214 215 222 0
216 -217 223 0
-216 -217 -223 0
216 217 -223 0
-216 217 223 0
218 -219 224 0
-218 -219 -224 0
218 219 -224 0
-218 219 224 0
220 -221 225 0
-220 -221 -225 0
220 221 -225 0
-220 221 225 0
222 -223 226 0
-222 -223 -226 0
222 223 -226 0
-222 223 226 0
-224 -225 226 0
224 -225 -226 0
-224 225 -226 0
224 225 226 0
1 2 227 0
-1 2 -227 0
1 -2 -227 0
-1 -2 227 0
-3 -4 228 0
3 -4 -228 0
-3 4 -228 0
3 4 228 0
6 -9 229 0
-6 -9 -229 0
6 9 -229 0
-6 9 229 0
-10 -11 230 0
10 -11 -230 0
-10 11 -230 0
10 11 230 0
-16 -22 231 0
16 -22 -231 0
-16 22 -231 0
16 22 231 0
24 -25 232 0
-24 -25 -232 0
24 25 -232 0
-24 25 232 0
26 27 233 0
-26 27 -233 0
26 -27 -233 0
-26 -27 233 0
-28 -29 234 0
28 -29 -234 0
-28 29 -234 0
28 29 234 0
-30 -32 235 0
30 -32 -235 0
-30 32 -235 0
30 32 235 0
33 35 236 0
-33 35 -236 0
33 -35 -236 0
-33 -35 236 0
-37 39 237 0
37 39 -237 0
-37 -39 -237 0
37 -39 237 0
-40 43 238 0
40 43 -238 0
-40 -43 -238 0
40 -43 238 0
44 46 239 0
-44 46 -239 0
44 -46 -239 0
-44 -46 239 0
47 48 240 0
-47 48 -240 0
47 -48 -240 0
-47 -48 240 0
226 -227 241 0
-226 -227 -241 0
226 227 -241 0
-226 227 241 0
228 -229 242 0
-228 -229 -242 0
228 229 -242 0
-228 229 242 0
230 -231 243 0
-230 -231 -243 0
230 231 -243 0
-230 231 243 0
232 -233 244 0
-232 -233 -244 0
232 233 -244 0
-232 233 244 0
234 -235 245 0
-234 -235 -245 0
234 235 -245 0
-234 235 245 0
236 -237 246 0
-236 -237 -246 0
236 237 -246 0
-236 237 246 0
238 -239 247 0
-238 -239 -247 0
238 239 -247 0
-238 239 247 0
240 -241 248 0
-240 -241 -248 0
240 241 -248 0
-240 241 248 0
242 -243 249 0
-242 -243 -249 0
242 243 -249 0
-242 243 249 0
244 -245 250 0
-244 -245 -250 0
244 245 -250 0
-244 245 250 0
246 -247 251 0
-246 -247 -251 0
246 247 -251 0
-246 247 251 0
248 -249 252 0
-248 -249 -252 0
248 249 -252 0
-248 249 252 0
250 -251 253 0
-250 -251 -253 0
250 251 -253 0
-250 251 253 0
252 253 0
-252 -253 0
-1 -4 254 0
1 -4 -254 0
-1 4 -254 0
1 4 254 0
7 8 255 0
-7 8 -255 0
7 -8 -255 0
-7 -8 255 0
-9 11 256 0
9 11 -256 0
-9 -11 -256 0
9 -11 256 0
12 13 257 0
-12 13 -257 0
12 -13 -257 0
-12 -13 257 0
15 20 258 0
-15 20 -258 0
15 -20 -258 0
-15 -20 258 0
-22 -26 259 0
22 -26 -259 0
-22 26 -259 0
22 26 259 0
-27 -28 260 0
27 -28 -260 0
-27 28 -260 0
27 28 260 0
32 -33 261 0
-32 -33 -261 0
32 33 -261 0
-32 33 261 0
34 -35 262 0
-34 -35 -262 0
34 35 -262 0
-34 35 262 0
-39 -40 263 0
39 -40 -263 0
-39 40 -263 0
39 40 263 0
-41 48 264 0
41 48 -264 0
-41 -48 -264 0
41 -48 264 0
253 -254 265 0
-253 -254 -265 0
253 254 -265 0
-253 254 265 0
255 -256 266 0
-255 -256 -266 0
255 256 -266 0
-255 256 266 0
257 -258 267 0
-257 -258 -267 0
257 258 -267 0
-257 258 267 0
259 -260 268 0
-259 -260 -268 0
259 260 -268 0
-259 260 268 0
261 -262 269 0
-261 -262 -269 0
261 262 -269 0
-261 262 269 0
263 -264 270 0
-263 -264 -270 0
263 264 -270 0
-263 264 270 0
265 -266 271 0
-265 -266 -271 0
265 266 -271 0
-265 266 271 0
267 -268 272 0
-267 -268 -272 0
267 268 -272 0
-267 268 272 0
269 -270 273 0
-269 -270 -273 0
269 270 -273 0
-269 270 273 0
-271 -272 273 0
271 -272 -273 0
-271 272 -273 0
271 272 273 0
1 4 274 0
-1 4 -274 0
1 -4 -274 0
-1 -4 274 0
11 -12 275 0
-11 -12 -275 0
11 12 -275 0
-11 12 275 0
13 14 276 0
-13 14 -276 0
13 -14 -276 0
-13 -14 276 0
-15 18 277 0
15 18 -277 0
-15 -18 -277 0
15 -18 277 0
19 -26 278 0
-19 -26 -278 0
19 26 -278 0
-19 26 278 0
31 -35 279 0
-31 -35 -279 0
31 35 -279 0
-31 35 279 0
-36 -38 280 0
36 -38 -280 0
-36 38 -280 0
36 38 280 0
-40 41 281 0
40 41 -281 0
-40 -41 -281 0
40 -41 281 0
-42 43 282 0
42 43 -282 0
-42 -43 -282 0
42 -43 282 0
-44 45 283 0
44 45 -283 0
-44 -45 -283 0
44 -45 283 0
46 47 284 0
-46 47 -284 0
46 -47 -284 0
-46 -47 284 0
273 -274 285 0
-273 -274 -285 0
273 274 -285 0
-273 274 285 0
275 -276 286 0
-275 -276 -286 0
275 276 -286 0
-275 276 286 0
277 -278 287 0
-277 -278 -287 0
277 278 -287 0
-277 278 287 0
279 -280 288 0
-279 -280 -288 0
279 280 -288 0
-279 280 288 0
281 -282 289 0
-281 -282 -289 0
281 282 -289 0
-281 282 289 0
283 -284 290 0
-283 -284 -290 0
283 284 -290 0
-283 284 290 0
285 -286 291 0
-285 -286 -291 0
285 286 -291 0
-285 286 291 0
287 -288 292 0
-287 -288 -292 0
287 288 -292 0
-287 288 292 0
289 -290 293 0
-289 -290 -293 0
289 290 -293 0
-289 290 293 0
-291 -292 293 0
291 -292 -293 0
-291 292 -293 0
291 292 293 0
1 -4 294 0
-1 -4 -294 0
1 4 -294 0
-1 4 294 0
-5 -8 295 0
5 -8 -295 0
-5 8 -295 0
5 8 295 0
10 12 296 0
-10 12 -296 0
10 -12 -296 0
-10 -12 296 0
-13 14 297 0
13 14 -297 0
-13 -14 -297 0
13 -14 297 0
17 20 298 0
-17 20 -298 0
17 -20 -298 0
-17 -20 298 0
-21 -23 299 0
21 -23 -299 0
-21 23 -299 0
21 23 299 0
-24 25 300 0
24 25 -300 0
-24 -25 -300 0
24 -25 300 0
26 -27 301 0
-26 -27 -301 0
26 27 -301 0
-26 27 301 0
-28 29 302 0
28 29 -302 0
-28 -29 -302 0
28 -29 302 0
-32 35 303 0
32 35 -303 0
-32 -35 -303 0
32 -35 303 0
38 -40 304 0
-38 -40 -304 0
38 40 -304 0
-38 40 304 0
-41 43 305 0
41 43 -305 0
-41 -43 -305 0
41 -43 305 0
45 -46 306 0
-45 -46 -306 0
45 46 -306 0
-45 46 306 0
293 -294 307 0
-293 -294 -307 0
293 294 -307 0
-293 294 307 0
295 -296 308 0
-295 -296 -308 0
295 296 -308 0
-295 296 308 0
297 -298 309 0
-297 -298 -309 0
297 298 -309 0
-297 298 309 0
299 -300 310 0
-299 -300 -310 0
299 300 -310 0
-299 300 310 0
301 -302 311 0
-301 -302 -311 0
301 302 -311 0
-301 302 311 0
303 -304 312 0
-303 -304 -312 0
303 304 -312 0
-303 304 312 0
305 -306 313 0
-305 -306 -313 0
305 306 -313 0
-305 306 313 0
307 -308 314 0
-307 -308 -314 0
307 308 -314 0
-307 308 314 0
309 -310 315 0
-309 -310 -315 0
309 310 -315 0
-309 310 315 0
311 -312 316 0
-311 -312 -316 0
311 312 -316 0
-311 312 316 0
313 -314 317 0
-313 -314 -317 0
313 314 -317 0
-313 314 317 0
315 -316 318 0
-315 -316 -318 0
315 316 -318 0
-315 316 318 0
317 318 0
-317 -318 0
-3 -4 319 0
3 -4 -319 0
-3 4 -319 0
3 4 319 0
6 -7 320 0
-6 -7 -320 0
6 7 -320 0
-6 7 320 0
8 -9 321 0
-8 -9 -321 0
8 9 -321 0
-8 9 321 0
-11 12 322 0
11 12 -322 0
-11 -12 -322 0
11 -12 322 0
13 16 323 0
-13 16 -323 0
13 -16 -323 0
-13 -16 323 0
18 -21 324 0
-18 -21 -324 0
18 21 -324 0
-18 21 324 0
24 26 325 0
-24 26 -325 0
24 -26 -325 0
-24 -26 325 0
29 32 326 0
-29 32 -326 0
29 -32 -326 0
-29 -32 326 0
35 -37 327 0
-35 -37 -327 0
35 37 -327 0
-35 37 327 0
38 39 328 0
-38 39 -328 0
38 -39 -328 0
-38 -39 328 0
-41 -43 329 0
41 -43 -329 0
-41 43 -329 0
41 43 329 0
-46 -47 330 0
46 -47 -330 0
-46 47 -330 0
46 47 330 0
318 -319 331 0
-318 -319 -331 0
318 319 -331 0
-318 319 331 0
320 -321 332 0
-320 -321 -332 0
320 321 -332 0
-320 321 332 0
322 -323 333 0
-322 -323 -333 0
322 323 -333 0
-322 323 333 0
324 -325 334 0
-324 -325 -334 0
324 325 -334 0
-324 325 334 0
326 -327 335 0
-326 -327 -335 0
326 327 -335 0
-326 327 335 0
328 -329 336 0
-328 -329 -336 0
328 329 -336 0
-328 329 336 0
330 -331 337 0
-330 -331 -337 0
330 331 -337 0
-330 331 337 0
332 -333 338 0
-332 -333 -338 0
332 333 -338 0
-332 333 338 0
334 -335 339 0
-334 -335 -339 0
334 335 -339 0
-334 335 339 0
336 -337 340 0
-336 -337 -340 0
336 337 -340 0
-336 337 340 0
338 -339 341 0
-338 -339 -341 0
338 339 -341 0
-338 339 341 0
340 341 0
-340 -341 0
1 -3 342 0
-1 -3 -342 0
1 3 -342 0
-1 3 342 0
5 -6 343 0
-5 -6 -343 0
5 6 -343 0
-5 6 343 0
8 -10 344 0
-8 -10 -344 0
8 10 -344 0
-8 10 344 0
11 -12 345 0
-11 -12 -345 0
11 12 -345 0
-11 12 345 0
-13 -15 346 0
13 -15 -346 0
-13 15 -346 0
13 15 346 0
-16 18 347 0
16 18 -347 0
-16 -18 -347 0
16 -18 347 0
-19 -24 348 0
19 -24 -348 0
-19 24 -348 0
19 24 348 0
26 -28 349 0
-26 -28 -349 0
26 28 -349 0
-26 28 349 0
-29 -30 350 0
29 -30 -350 0
-29 30 -350 0
29 30 350 0
34 36 351 0
-34 36 -351 0
34 -36 -351 0
-34 -36 351 0
-37 -39 352 0
37 -39 -352 0
-37 39 -352 0
37 39 352 0
47 -49 353 0
-47 -49 -353 0
47 49 -353 0
-47 49 353 0
341 -342 354 0
-341 -342 -354 0
341 342 -354 0
-341 342 354 0
343 -344 355 0
-343 -344 -355 0
343 344 -355 0
-343 344 355 0
345 -346 356 0
-345 -346 -356 0
345 346 -356 0
-345 346 356 0
347 -348 357 0
-347 -348 -357 0
347 348 -357 0
-347 348 357 0
349 -350 358 0
-349 -350 -358 0
349 350 -358 0
-349 350 358 0
351 -352 359 0
-351 -352 -359 0
351 352 -359 0
-351 352 359 0
353 -354 360 0
-353 -354 -360 0
353 354 -360 0
-353 354 360 0
355 -356 361 0
-355 -356 -361 0
355 356 -361 0
-355 356 361 0
357 -358 362 0
-357 -358 -362 0
357 358 -362 0
-357 358 362 0
359 -360 363 0
-359 -360 -363 0
359 360 -363 0
-359 360 363 0
361 -362 364 0
-361 -362 -364 0
361 362 -364 0
-361 362 364 0
363 364 0
-363 -364 0
-1 2 365 0
1 2 -365 0
-1 -2 -365 0
1 -2 365 0
3 -4 366 0
-3 -4 -366 0
3 4 -366 0
-3 4 366 0
-5 -6 367 0
5 -6 -367 0
-5 6 -367 0
5 6 367 0
-9 -12 368 0
9 -12 -368 0
-9 12 -368 0
9 12 368 0
18 -21 369 0
-18 -21 -369 0
18 21 -369 0
-18 21 369 0
24 -26 370 0
-24 -26 -370 0
24 26 -370 0
-24 26 370 0
-27 28 371 0
27 28 -371 0
-27 -28 -371 0
27 -28 371 0
32 33 372 0
-32 33 -372 0
32 -33 -372 0
-32 -33 372 0
34 38 373 0
-34 38 -373 0
34 -38 -373 0
-34 -38 373 0
39 40 374 0
-39 40 -374 0
39 -40 -374 0
-39 -40 374 0
42 -43 375 0
-42 -43 -375 0
42 43 -375 0
-42 43 375 0
44 46 376 0
-44 46 -376 0
44 -46 -376 0
-44 -46 376 0
-47 48 377 0
47 48 -377 0
-47 -48 -377 0
47 -48 377 0
364 -365 378 0
-364 -365 -378 0
364 365 -378 0
-364 365 378 0
366 -367 379 0
-366 -367 -379 0
366 367 -379 0
-366 367 379 0
368 -369 380 0
-368 -369 -380 0
368 369 -380 0
-368 369 380 0
370 -371 381 0
-370 -371 -381 0
370 371 -381 0
-370 371 381 0
372 -373 382 0
-372 -373 -382 0
372 373 -382 0
-372 373 382 0
374 -375 383 0
-374 -375 -383 0
374 375 -383 0
-374 375 383 0
376 -377 384 0
-376 -377 -384 0
376 377 -384 0
-376 377 384 0
378 -379 385 0
-378 -379 -385 0
378 379 -385 0
-378 379 385 0
380 -381 386 0
-380 -381 -386 0
380 381 -386 0
-380 381 386 0
382 -383 387 0
-382 -383 -387 0
382 383 -387 0
-382 383 387 0
384 -385 388 0
-384 -385 -388 0
384 385 -388 0
-384 385 388 0
386 -387 389 0
-386 -387 -389 0
386 387 -389 0
-386 387 389 0
388 389 0
-388 -389 0
2 3 390 0
-2 3 -390 0
2 -3 -390 0
-2 -3 390 0
4 5 391 0
-4 5 -391 0
4 -5 -391 0
-4 -5 391 0
-10 -11 392 0
10 -11 -392 0
-10 11 -392 0
10 11 392 0
-12 13 393 0
12 13 -393 0
-12 -13 -393 0
12 -13 393 0
15 -18 394 0
-15 -18 -394 0
15 18 -394 0
-15 18 394 0
21 -22 395 0
-21 -22 -395 0
21 22 -395 0
-21 22 395 0
24 25 396 0
-24 25 -396 0
24 -25 -396 0
-24 -25 396 0
-26 -27 397 0
26 -27 -397 0
-26 27 -397 0
26 27 397 0
33 34 398 0
-33 34 -398 0
33 -34 -398 0
-33 -34 398 0
-36 -38 399 0
36 -38 -399 0
-36 38 -399 0
36 38 399 0
41 46 400 0
-41 46 -400 0
41 -46 -400 0
-41 -46 400 0
-47 -48 401 0
47 -48 -401 0
-47 48 -401 0
47 48 401 0
389 -390 402 0
-389 -390 -402 0
389 390 -402 0
-389 390 402 0
391 -392 403 0
-391 -392 -403 0
391 392 -403 0
-391 392 403 0
393 -394 404 0
-393 -394 -404 0
393 394 -404 0
-393 394 404 0
395 -396 405 0
-395 -396 -405 0
395 396 -405 0
-395 396 405 0
397 -398 406 0
-397 -398 -406 0
397 398 -406 0
-397 398 406 0
399 -400 407 0
-399 -400 -407 0
399 400 -407 0
-399 400 407 0
401 -402 408 0
-401 -402 -408 0
401 402 -408 0
-401 402 408 0
403 -404 409 0
-403 -404 -409 0
403 404 -409 0
-403 404 409 0
405 -406 410 0
-405 -406 -410 0
405 406 -410 0
-405 406 410 0
407 -408 411 0
-407 -408 -411 0
407 408 -411 0
-407 408 411 0
409 -410 412 0
-409 -410 -412 0
409 410 -412 0
-409 410 412 0
411 412 0
-411 -412 0
-5 8 413 0
5 8 -413 0
-5 -8 -413 0
5 -8 413 0
9 -10 414 0
-9 -10 -414 0
9 10 -414 0
-9 10 414 0
-11 13 415 0
11 13 -415 0
-11 -13 -415 0
11 -13 415 0
14 -15 416 0
-14 -15 -416 0
14 15 -416 0
-14 15 416 0
-16 -21 417 0
16 -21 -417 0
-16 21 -417 0
16 21 417 0
23 29 418 0
-23 29 -418 0
23 -29 -418 0
-23 -29 418 0
-32 33 419 0
32 33 -419 0
-32 -33 -419 0
32 -33 419 0
-36 -38 420 0
36 -38 -420 0
-36 38 -420 0
36 38 420 0
-49 -50 421 0
49 -50 -421 0
-49 50 -421 0
49 50 421 0
413 -414 422 0
-413 -414 -422 0
413 414 -422 0
-413 414 422 0
415 -416 423 0
-415 -416 -423 0
415 416 -423 0
-415 416 423 0
417 -418 424 0
-417 -418 -424 0
417 418 -424 0
-417 418 424 0
419 -420 425 0
-419 -420 -425 0
419 420 -425 0
-419 420 425 0
421 -422 426 0
-421 -422 -426 0
421 422 -426 0
-421 422 426 0
423 -424 427 0
-423 -424 -427 0
423 424 -427 0
-423 424 427 0
-425 -426 427 0
425 -426 -427 0
-425 426 -427 0
425 426 427 0
-1 2 428 0
1 2 -428 0
-1 -2 -428 0
1 -2 428 0
3 6 429 0
-3 6 -429 0
3 -6 -429 0
-3 -6 429 0
-8 12 430 0
8 12 -430 0
-8 -12 -430 0
8 -12 430 0
-13 -14 431 0
13 -14 -431 0
-13 14 -431 0
13 14 431 0
-19 21 432 0
19 21 -432 0
-19 -21 -432 0
19 -21 432 0
-22 24 433 0
22 24 -433 0
-22 -24 -433 0
22 -24 433 0
25 -26 434 0
-25 -26 -434 0
25 26 -434 0
-25 26 434 0
-28 29 435 0
28 29 -435 0
-28 -29 -435 0
28 -29 435 0
30 -31 436 0
-30 -31 -436 0
30 31 -436 0
-30 31 436 0
-32 34 437 0
32 34 -437 0
-32 -34 -437 0
32 -34 437 0
36 37 438 0
-36 37 -438 0
36 -37 -438 0
-36 -37 438 0
39 40 439 0
-39 40 -439 0
39 -40 -439 0
-39 -40 439 0
-41 42 440 0
41 42 -440 0
-41 -42 -440 0
41 -42 440 0
-48 -49 441 0
48 -49 -441 0
-48 49 -441 0
48 49 441 0
428 -429 442 0
-428 -429 -442 0
428 429 -442 0
-428 429 442 0
430 -431 443 0
-430 -431 -443 0
430 431 -443 0
-430 431 443 0
432 -433 444 0
-432 -433 -444 0
432 433 -444 0
-432 433 444 0
434 -435 445 0
-434 -435 -445 0
434 435 -445 0
-434 435 445 0
436 -437 446 0
-436 -437 -446 0
436 437 -446 0
-436 437 446 0
438 -439 447 0
-438 -439 -447 0
438 439 -447 0
-438 439 447 0
440 -441 448 0
-440 -441 -448 0
440 441 -448 0
-440 441 448 0
442 -443 449 0
-442 -443 -449 0
442 443 -449 0
-442 443 449 0
444 -445 450 0
-444 -445 -450 0
444 445 -450 0
-444 445 450 0
446 -447 451 0
-446 -447 -451 0
446 447 -451 0
-446 447 451 0
448 -449 452 0
-448 -449 -452 0
448 449 -452 0
-448 449 452 0
450 -451 453 0
-450 -451 -453 0
450 451 -453 0
-450 451 453 0
452 453 0
-452 -453 0
1 -2 454 0
-1 -2 -454 0
1 2 -454 0
-1 2 454 0
-3 -4 455 0
3 -4 -455 0
-3 4 -455 0
3 4 455 0
-6 8 456 0
6 8 -456 0
-6 -8 -456 0
6 -8 456 0
10 -11 457 0
-10 -11 -457 0
10 11 -457 0
-10 11 457 0
12 -19 458 0
-12 -19 -458 0
12 19 -458 0
-12 19 458 0
-22 -23 459 0
22 -23 -459 0
-22 23 -459 0
22 23 459 0
27 -28 460 0
-27 -28 -460 0
27 28 -460 0
-27 28 460 0
29 33 461 0
-29 33 -461 0
29 -33 -461 0
-29 -33 461 0
-37 41 462 0
37 41 -462 0
-37 -41 -462 0
37 -41 462 0
-42 44 463 0
42 44 -463 0
-42 -44 -463 0
42 -44 463 0
45 46 464 0
-45 46 -464 0
45 -46 -464 0
-45 -46 464 0
47 50 465 0
-47 50 -465 0
47 -50 -465 0
-47 -50 465 0
454 -455 466 0
-454 -455 -466 0
454 455 -466 0
-454 455 466 0
456 -457 467 0
-456 -457 -467 0
456 457 -467 0
-456 457 467 0
458 -459 468 0
-458 -459 -468 0
458 459 -468 0
-458 459 468 0
460 -461 469 0
-460 -461 -469 0
460 461 -469 0
-460 461 469 0
462 -463 470 0
-462 -463 -470 0
462 463 -470 0
-462 463 470 0
464 -465 471 0
-464 -465 -471 0
464 465 -471 0
-464 465 471 0
466 -467 472 0
-466 -467 -472 0
466 467 -472 0
-466 467 472 0
468 -469 473 0
-468 -469 -473 0
468 469 -473 0
-468 469 473 0
470 -471 474 0
-470 -471 -474 0
470 471 -474 0
-470 471 474 0
-472 -473 474 0
472 -473 -474 0
-472 473 -474 0
472 473 474 0
-1 -2 475 0
1 -2 -475 0
-1 2 -475 0
1 2 475 0
-8 11 476 0
8 11 -476 0
-8 -11 -476 0
8 -11 476 0
12 14 477 0
-12 14 -477 0
12 -14 -477 0
-12 -14 477 0
-15 -16 478 0
15 -16 -478 0
-15 16 -478 0
15 16 478 0
-19 20 479 0
19 20 -479 0
-19 -20 -479 0
19 -20 479 0
-21 22 480 0
21 22 -480 0
-21 -22 -480 0
21 -22 480 0
23 27 481 0
-23 27 -481 0
23 -27 -481 0
-23 -27 481 0
-29 -30 482 0
29 -30 -482 0
-29 30 -482 0
29 30 482 0
31 32 483 0
-31 32 -483 0
31 -32 -483 0
-31 -32 483 0
36 39 484 0
-36 39 -484 0
36 -39 -484 0
-36 -39 484 0
41 -42 485 0
-41 -42 -485 0
41 42 -485 0
-41 42 485 0
-46 -48 486 0
46 -48 -486 0
-46 48 -486 0
46 48 486 0
-49 50 487 0
49 50 -487 0
-49 -50 -487 0
49 -50 487 0
475 -476 488 0
-475 -476 -488 0
475 476 -488 0
-475 476 488 0
477 -478 489 0
-477 -478 -489 0
477 478 -489 0
-477 478 489 0
479 -480 490 0
-479 -480 -490 0
479 480 -490 0
-479 480 490 0
481 -482 491 0
-481 -482 -491 0
481 482 -491 0
-481 482 491 0
483 -484 492 0
-483 -484 -492 0
483 484 -492 0
-483 484 492 0
485 -486 493 0
-485 -486 -493 0
485 486 -493 0
-485 486 493 0
487 -488 494 0
-487 -488 -494 0
487 488 -494 0
-487 488 494 0
489 -490 495 0
-489 -490 -495 0
489 490 -495 0
-489 490 495 0
491 -492 496 0
-491 -492 -496 0
491 492 -496 0
-491 492 496 0
493 -494 497 0
-493 -494 -497 0
493 494 -497 0
-493 494 497 0
495 -496 498 0
-495 -496 -498 0
495 496 -498 0
-495 496 498 0
497 498 0
-497 -498 0
